NAME : Unnamed.860.tour
COMMENT : Length = 860
COMMENT : Found by LKH [Keld Helsgaun] Tue Jan 13 16:45:12 2015
TYPE : TOUR
DIMENSION : 102
TOUR_SECTION
1
9
75
44
31
14
10
22
23
13
78
70
49
65
85
72
102
30
2
83
11
92
84
48
33
73
38
21
39
97
87
20
53
68
64
79
46
17
40
32
86
96
15
51
47
4
67
42
16
81
63
5
6
74
60
28
91
71
62
57
93
77
43
101
69
50
94
35
27
99
41
8
12
34
25
37
36
26
24
89
18
59
82
52
55
76
45
61
98
7
29
3
58
95
66
90
19
56
100
80
54
88
-1
EOF
